p cnf 412 698
-45 34 35 76 0
-45 34 35 -76 0
-14 31 54 77 0
-14 31 54 -77 0
34 -36 -75 78 0
34 -36 -75 -78 0
-21 -2 -54 79 0
-21 -2 -54 -79 0
-61 51 13 80 0
-61 51 13 -80 0
-19 -1 50 81 0
-19 -1 50 -81 0
-71 9 -41 82 0
-71 9 -41 -82 0
-71 -38 23 83 0
-71 -38 23 -83 0
58 -69 -17 84 0
58 -69 -17 -84 0
3 35 -44 85 0
3 35 -44 -85 0
32 29 -74 86 0
32 29 -74 -86 0
-16 -3 2 87 0
-16 -3 2 -87 0
-43 48 66 88 0
-43 48 66 -88 0
-26 -9 24 89 0
-26 -9 24 -89 0
65 18 -59 90 0
65 18 -59 -90 0
-37 -55 -56 91 0
-37 -55 -56 -91 0
-58 -64 -50 92 0
-58 -64 -50 -92 0
-6 -14 23 93 0
-6 -14 23 -93 0
3 -8 46 94 0
3 -8 46 -94 0
42 -60 -46 95 0
42 -60 -46 -95 0
-8 -26 -52 96 0
-8 -26 -52 -96 0
37 51 -28 97 0
37 51 -28 -97 0
66 19 -7 98 0
66 19 -7 -98 0
51 -19 -71 99 0
51 -19 -71 -99 0
50 -11 21 100 0
50 -11 21 -100 0
43 -65 70 101 0
43 -65 70 -101 0
67 -34 -60 102 0
67 -34 -60 -102 0
69 66 -60 103 0
69 66 -60 -103 0
57 -25 45 104 0
57 -25 45 -104 0
-53 -4 -9 105 0
-53 -4 -9 -105 0
16 6 38 106 0
16 6 38 -106 0
43 28 54 107 0
43 28 54 -107 0
-6 24 16 108 0
-6 24 16 -108 0
40 12 -47 109 0
40 12 -47 -109 0
-43 67 52 110 0
-43 67 52 -110 0
6 -12 61 111 0
6 -12 61 -111 0
58 75 59 112 0
58 75 59 -112 0
16 53 -25 113 0
16 53 -25 -113 0
46 -18 54 114 0
46 -18 54 -114 0
24 25 73 115 0
24 25 73 -115 0
19 42 7 116 0
19 42 7 -116 0
17 -13 72 117 0
17 -13 72 -117 0
-43 19 30 118 0
-43 19 30 -118 0
-20 -43 19 119 0
-20 -43 19 -119 0
21 23 -25 120 0
21 23 -25 -120 0
-39 54 21 121 0
-39 54 21 -121 0
-59 -29 46 122 0
-59 -29 46 -122 0
60 -23 -31 123 0
60 -23 -31 -123 0
16 17 23 124 0
16 17 23 -124 0
-36 45 -60 125 0
-36 45 -60 -125 0
-18 -59 60 126 0
-18 -59 60 -126 0
47 24 65 127 0
47 24 65 -127 0
11 27 32 128 0
11 27 32 -128 0
42 -40 -35 129 0
42 -40 -35 -129 0
37 -16 27 130 0
37 -16 27 -130 0
-61 -11 15 131 0
-61 -11 15 -131 0
-65 -45 -35 132 0
-65 -45 -35 -132 0
55 7 65 133 0
55 7 65 -133 0
-24 -74 52 134 0
-24 -74 52 -134 0
-40 -37 -46 135 0
-40 -37 -46 -135 0
23 44 -50 136 0
23 44 -50 -136 0
48 -4 17 137 0
48 -4 17 -137 0
45 -38 -19 138 0
45 -38 -19 -138 0
46 -72 -49 139 0
46 -72 -49 -139 0
53 19 -10 140 0
53 19 -10 -140 0
63 -31 -36 141 0
63 -31 -36 -141 0
10 -41 54 142 0
10 -41 54 -142 0
-39 -18 -73 143 0
-39 -18 -73 -143 0
32 -22 43 144 0
32 -22 43 -144 0
-54 -21 -40 145 0
-54 -21 -40 -145 0
55 -32 -5 146 0
55 -32 -5 -146 0
-65 3 39 147 0
-65 3 39 -147 0
5 -67 28 148 0
5 -67 28 -148 0
49 5 -26 149 0
49 5 -26 -149 0
38 -63 -14 150 0
38 -63 -14 -150 0
-52 -30 15 151 0
-52 -30 15 -151 0
55 35 -11 152 0
55 35 -11 -152 0
-28 7 31 153 0
-28 7 31 -153 0
60 -57 8 154 0
60 -57 8 -154 0
3 -36 -5 155 0
3 -36 -5 -155 0
74 -15 -10 156 0
74 -15 -10 -156 0
21 -50 14 157 0
21 -50 14 -157 0
70 21 23 158 0
70 21 23 -158 0
29 -61 14 159 0
29 -61 14 -159 0
-54 72 47 160 0
-54 72 47 -160 0
-39 12 25 161 0
-39 12 25 -161 0
-27 46 -70 162 0
-27 46 -70 -162 0
56 72 8 163 0
56 72 8 -163 0
-35 51 -69 164 0
-35 51 -69 -164 0
59 -66 -60 165 0
59 -66 -60 -165 0
-40 -14 9 166 0
-40 -14 9 -166 0
9 -14 5 167 0
9 -14 5 -167 0
-66 35 4 168 0
-66 35 4 -168 0
-6 -72 2 169 0
-6 -72 2 -169 0
-62 -28 -4 170 0
-62 -28 -4 -170 0
-43 22 -68 171 0
-43 22 -68 -171 0
11 18 -68 172 0
11 18 -68 -172 0
23 11 -5 173 0
23 11 -5 -173 0
-52 14 39 174 0
-52 14 39 -174 0
-66 -74 36 175 0
-66 -74 36 -175 0
-49 -12 -39 176 0
-49 -12 -39 -176 0
20 73 66 177 0
20 73 66 -177 0
-58 -36 22 178 0
-58 -36 22 -178 0
-29 39 -44 179 0
-29 39 -44 -179 0
1 7 55 180 0
1 7 55 -180 0
53 51 35 181 0
53 51 35 -181 0
-65 -36 21 182 0
-65 -36 21 -182 0
66 30 -69 183 0
66 30 -69 -183 0
42 -46 19 184 0
42 -46 19 -184 0
-66 -38 -42 185 0
-66 -38 -42 -185 0
69 -51 19 186 0
69 -51 19 -186 0
-51 57 -71 187 0
-51 57 -71 -187 0
29 -26 74 188 0
29 -26 74 -188 0
4 61 -23 189 0
4 61 -23 -189 0
-5 -61 -25 190 0
-5 -61 -25 -190 0
-44 34 -12 191 0
-44 34 -12 -191 0
-47 -8 43 192 0
-47 -8 43 -192 0
71 69 10 193 0
71 69 10 -193 0
-23 -36 10 194 0
-23 -36 10 -194 0
-27 54 -17 195 0
-27 54 -17 -195 0
-44 -72 -34 196 0
-44 -72 -34 -196 0
-27 39 67 197 0
-27 39 67 -197 0
6 2 -29 198 0
6 2 -29 -198 0
-39 43 -21 199 0
-39 43 -21 -199 0
5 39 49 200 0
5 39 49 -200 0
-22 58 -74 201 0
-22 58 -74 -201 0
40 -65 30 202 0
40 -65 30 -202 0
67 65 -37 203 0
67 65 -37 -203 0
6 43 24 204 0
6 43 24 -204 0
-21 -20 74 205 0
-21 -20 74 -205 0
-71 62 -69 206 0
-71 62 -69 -206 0
-7 22 -13 207 0
-7 22 -13 -207 0
-30 -70 -9 208 0
-30 -70 -9 -208 0
55 -41 -14 209 0
55 -41 -14 -209 0
26 -1 -48 210 0
26 -1 -48 -210 0
15 -29 56 211 0
15 -29 56 -211 0
67 -2 -35 212 0
67 -2 -35 -212 0
-52 -69 35 213 0
-52 -69 35 -213 0
-51 23 -74 214 0
-51 23 -74 -214 0
39 -54 56 215 0
39 -54 56 -215 0
-72 13 -51 216 0
-72 13 -51 -216 0
64 11 47 217 0
64 11 47 -217 0
64 -67 -5 218 0
64 -67 -5 -218 0
-56 29 71 219 0
-56 29 71 -219 0
35 -57 3 220 0
35 -57 3 -220 0
37 -64 13 221 0
37 -64 13 -221 0
58 -29 -44 222 0
58 -29 -44 -222 0
-40 -41 50 223 0
-40 -41 50 -223 0
17 44 -55 224 0
17 44 -55 -224 0
-37 -58 -54 225 0
-37 -58 -54 -225 0
-41 -34 -35 226 0
-41 -34 -35 -226 0
-11 28 54 227 0
-11 28 54 -227 0
-21 45 11 228 0
-21 45 11 -228 0
6 2 18 229 0
6 2 18 -229 0
56 8 -69 230 0
56 8 -69 -230 0
-60 38 -74 231 0
-60 38 -74 -231 0
49 35 26 232 0
49 35 26 -232 0
-63 37 74 233 0
-63 37 74 -233 0
-36 -32 -34 234 0
-36 -32 -34 -234 0
-68 -30 -67 235 0
-68 -30 -67 -235 0
26 -35 -34 236 0
26 -35 -34 -236 0
-23 -46 2 237 0
-23 -46 2 -237 0
2 -60 53 238 0
2 -60 53 -238 0
-33 -19 35 239 0
-33 -19 35 -239 0
-51 -64 39 240 0
-51 -64 39 -240 0
-37 1 -48 241 0
-37 1 -48 -241 0
37 48 15 242 0
37 48 15 -242 0
55 23 -70 243 0
55 23 -70 -243 0
-35 -56 -71 244 0
-35 -56 -71 -244 0
-4 -23 56 245 0
-4 -23 56 -245 0
55 26 -32 246 0
55 26 -32 -246 0
72 58 -30 247 0
72 58 -30 -247 0
21 74 73 248 0
21 74 73 -248 0
-69 -66 -2 249 0
-69 -66 -2 -249 0
57 63 -72 250 0
57 63 -72 -250 0
68 10 11 251 0
68 10 11 -251 0
5 -33 14 252 0
5 -33 14 -252 0
9 64 -32 253 0
9 64 -32 -253 0
27 -72 52 254 0
27 -72 52 -254 0
-2 43 -24 255 0
-2 43 -24 -255 0
-57 72 63 256 0
-57 72 63 -256 0
24 -25 57 257 0
24 -25 57 -257 0
71 -68 12 258 0
71 -68 12 -258 0
-13 -25 65 259 0
-13 -25 65 -259 0
-53 -41 49 260 0
-53 -41 49 -260 0
32 -41 -15 261 0
32 -41 -15 -261 0
49 -11 -20 262 0
49 -11 -20 -262 0
6 -62 -55 263 0
6 -62 -55 -263 0
46 -9 7 264 0
46 -9 7 -264 0
60 38 46 265 0
60 38 46 -265 0
-61 -45 -56 266 0
-61 -45 -56 -266 0
-38 -43 -52 267 0
-38 -43 -52 -267 0
25 59 32 268 0
25 59 32 -268 0
75 62 25 269 0
75 62 25 -269 0
-12 -6 -49 270 0
-12 -6 -49 -270 0
-71 25 31 271 0
-71 25 31 -271 0
-17 -63 -66 272 0
-17 -63 -66 -272 0
-39 -71 -28 273 0
-39 -71 -28 -273 0
12 74 -30 274 0
12 74 -30 -274 0
47 -17 57 275 0
47 -17 57 -275 0
6 -68 -46 276 0
6 -68 -46 -276 0
-60 -61 59 277 0
-60 -61 59 -277 0
-20 17 24 278 0
-20 17 24 -278 0
-16 23 46 279 0
-16 23 46 -279 0
-31 -44 3 280 0
-31 -44 3 -280 0
56 34 -69 281 0
56 34 -69 -281 0
-1 -63 48 282 0
-1 -63 48 -282 0
-71 -57 -25 283 0
-71 -57 -25 -283 0
58 -16 70 284 0
58 -16 70 -284 0
-50 30 65 285 0
-50 30 65 -285 0
-75 60 -64 286 0
-75 60 -64 -286 0
57 -2 54 287 0
57 -2 54 -287 0
-29 49 -1 288 0
-29 49 -1 -288 0
26 74 9 289 0
26 74 9 -289 0
41 -2 -37 290 0
41 -2 -37 -290 0
-61 -53 26 291 0
-61 -53 26 -291 0
40 -28 29 292 0
40 -28 29 -292 0
37 -10 -55 293 0
37 -10 -55 -293 0
30 13 69 294 0
30 13 69 -294 0
45 74 23 295 0
45 74 23 -295 0
-47 -14 54 296 0
-47 -14 54 -296 0
-24 -28 51 297 0
-24 -28 51 -297 0
-59 -7 42 298 0
-59 -7 42 -298 0
33 73 -42 299 0
33 73 -42 -299 0
-48 4 73 300 0
-48 4 73 -300 0
-71 -57 40 301 0
-71 -57 40 -301 0
-73 -3 55 302 0
-73 -3 55 -302 0
-5 39 32 303 0
-5 39 32 -303 0
-1 -34 73 304 0
-1 -34 73 -304 0
-42 33 -36 305 0
-42 33 -36 -305 0
64 -23 28 306 0
64 -23 28 -306 0
55 -69 -9 307 0
55 -69 -9 -307 0
59 47 27 308 0
59 47 27 -308 0
16 -19 -62 309 0
16 -19 -62 -309 0
46 -27 5 310 0
46 -27 5 -310 0
52 54 -55 311 0
52 54 -55 -311 0
10 61 44 312 0
10 61 44 -312 0
7 4 58 313 0
7 4 58 -313 0
-61 -36 19 314 0
-61 -36 19 -314 0
19 30 -23 315 0
19 30 -23 -315 0
2 73 35 316 0
2 73 35 -316 0
15 64 -54 317 0
15 64 -54 -317 0
-40 12 -47 318 0
-40 12 -47 -318 0
-59 -66 -32 319 0
-59 -66 -32 -319 0
58 -24 -73 320 0
58 -24 -73 -320 0
9 -40 12 321 0
9 -40 12 -321 0
-29 -32 -1 322 0
-29 -32 -1 -322 0
27 51 37 323 0
27 51 37 -323 0
-9 71 -74 324 0
-9 71 -74 -324 0
15 -17 -12 325 0
15 -17 -12 -325 0
-32 -24 1 326 0
-32 -24 1 -326 0
-75 23 61 327 0
-75 23 61 -327 0
-37 -50 42 328 0
-37 -50 42 -328 0
-58 9 72 329 0
-58 9 72 -329 0
-67 35 -36 330 0
-67 35 -36 -330 0
-74 -25 38 331 0
-74 -25 38 -331 0
-13 70 23 332 0
-13 70 23 -332 0
36 -58 -71 333 0
36 -58 -71 -333 0
40 -24 -49 334 0
40 -24 -49 -334 0
49 -65 -31 335 0
49 -65 -31 -335 0
-2 38 -4 336 0
-2 38 -4 -336 0
2 -41 -46 337 0
2 -41 -46 -337 0
-58 75 37 338 0
-58 75 37 -338 0
-18 43 27 339 0
-18 43 27 -339 0
63 -53 -15 340 0
63 -53 -15 -340 0
72 64 -18 341 0
72 64 -18 -341 0
51 -29 -11 342 0
51 -29 -11 -342 0
1 36 -50 343 0
1 36 -50 -343 0
-39 32 19 344 0
-39 32 19 -344 0
15 11 -75 345 0
15 11 -75 -345 0
9 25 50 346 0
9 25 50 -346 0
72 1 31 347 0
72 1 31 -347 0
57 -23 -43 348 0
57 -23 -43 -348 0
7 23 13 349 0
7 23 13 -349 0
-48 -27 -46 350 0
-48 -27 -46 -350 0
34 66 -23 351 0
34 66 -23 -351 0
-9 14 -49 352 0
-9 14 -49 -352 0
47 1 19 353 0
47 1 19 -353 0
72 -38 26 354 0
72 -38 26 -354 0
45 36 -65 355 0
45 36 -65 -355 0
13 -41 -36 356 0
13 -41 -36 -356 0
-9 58 66 357 0
-9 58 66 -357 0
-53 69 -12 358 0
-53 69 -12 -358 0
74 5 -6 359 0
74 5 -6 -359 0
-62 -58 30 360 0
-62 -58 30 -360 0
-22 -10 -3 361 0
-22 -10 -3 -361 0
35 54 -34 362 0
35 54 -34 -362 0
-36 13 -48 363 0
-36 13 -48 -363 0
16 8 -61 364 0
16 8 -61 -364 0
-14 -17 -56 365 0
-14 -17 -56 -365 0
5 -14 62 366 0
5 -14 62 -366 0
59 -30 -10 367 0
59 -30 -10 -367 0
-72 -16 -57 368 0
-72 -16 -57 -368 0
25 3 73 369 0
25 3 73 -369 0
-8 38 45 370 0
-8 38 45 -370 0
41 10 -51 371 0
41 10 -51 -371 0
-60 2 -75 372 0
-60 2 -75 -372 0
39 -14 -70 373 0
39 -14 -70 -373 0
11 7 61 374 0
11 7 61 -374 0
36 25 -47 375 0
36 25 -47 -375 0
43 54 62 376 0
43 54 62 -376 0
-63 -65 5 377 0
-63 -65 5 -377 0
43 -22 37 378 0
43 -22 37 -378 0
20 -53 -26 379 0
20 -53 -26 -379 0
-15 21 67 380 0
-15 21 67 -380 0
38 68 -58 381 0
38 68 -58 -381 0
28 -73 53 382 0
28 -73 53 -382 0
55 -28 58 383 0
55 -28 58 -383 0
-36 10 -2 384 0
-36 10 -2 -384 0
29 30 7 385 0
29 30 7 -385 0
25 53 -8 386 0
25 53 -8 -386 0
-29 33 48 387 0
-29 33 48 -387 0
-41 46 66 388 0
-41 46 66 -388 0
-17 45 3 389 0
-17 45 3 -389 0
14 -9 52 390 0
14 -9 52 -390 0
6 64 9 391 0
6 64 9 -391 0
35 -55 -52 392 0
35 -55 -52 -392 0
-61 43 -51 393 0
-61 43 -51 -393 0
-60 48 7 394 0
-60 48 7 -394 0
-19 -46 -18 395 0
-19 -46 -18 -395 0
72 5 -46 396 0
72 5 -46 -396 0
-9 -46 -48 397 0
-9 -46 -48 -397 0
45 52 13 398 0
45 52 13 -398 0
11 -3 63 399 0
11 -3 63 -399 0
-27 9 -65 400 0
-27 9 -65 -400 0
401 402 403 404 0
401 402 403 -404 0
401 402 -403 404 0
401 402 -403 -404 0
401 -402 403 404 0
401 -402 403 -404 0
401 -402 -403 404 0
401 -402 -403 -404 0
-401 402 403 404 0
-401 402 403 -404 0
-401 402 -403 404 0
-401 402 -403 -404 0
-401 -402 403 404 0
-401 -402 403 -404 0
-401 -402 -403 404 0
-401 -402 -403 -404 0
405 406 407 408 0
405 406 407 -408 0
405 406 -407 408 0
405 406 -407 -408 0
405 -406 407 408 0
405 -406 407 -408 0
405 -406 -407 408 0
405 -406 -407 -408 0
-405 406 407 408 0
-405 406 407 -408 0
-405 406 -407 408 0
-405 406 -407 -408 0
-405 -406 407 408 0
-405 -406 407 -408 0
-405 -406 -407 408 0
-405 -406 -407 -408 0
409 410 411 412 0
409 410 411 -412 0
409 410 -411 412 0
409 410 -411 -412 0
409 -410 411 412 0
409 -410 411 -412 0
409 -410 -411 412 0
409 -410 -411 -412 0
-409 410 411 412 0
-409 410 411 -412 0
-409 410 -411 412 0
-409 410 -411 -412 0
-409 -410 411 412 0
-409 -410 411 -412 0
-409 -410 -411 412 0
-409 -410 -411 -412 0
